Using license file /home/brunoalmeda/gurobi.lic
Academic license - for non-commercial use only
Changed value of parameter TimeLimit to 86400.0
   Prev: inf  Min: 0.0  Max: inf  Default: inf
Changed value of parameter lazyconstraints to 1
   Prev: 0  Min: 0  Max: 1  Default: 0
Gurobi Optimizer version 9.0.1 build v9.0.1rc0 (linux64)
Optimize a model with 962 rows, 2790 columns and 6420 nonzeros
Model fingerprint: 0x33517fcb
Variable types: 930 continuous, 1860 integer (1860 binary)
Coefficient statistics:
  Matrix range     [1e+00, 1e+01]
  Objective range  [1e+05, 3e+06]
  Bounds range     [1e+00, 3e+01]
  RHS range        [1e+00, 4e+00]
Presolve removed 1 rows and 60 columns
Presolve time: 0.01s
Presolved: 961 rows, 2730 columns, 6360 nonzeros
Variable types: 930 continuous, 1800 integer (1800 binary)

Root relaxation: objective 7.321535e+06, 1313 iterations, 0.02 seconds

    Nodes    |    Current Node    |     Objective Bounds      |     Work
 Expl Unexpl |  Obj  Depth IntInf | Incumbent    BestBd   Gap | It/Node Time

     0     0 7321535.16    0   32          - 7321535.16      -     -    0s
H    0     0                    8132597.3550 7321535.16  10.0%     -    0s
     0     0 7529718.94    0   38 8132597.35 7529718.94  7.41%     -    0s
     0     0 7529718.94    0   32 8132597.35 7529718.94  7.41%     -    0s
     0     0 7561985.43    0   40 8132597.35 7561985.43  7.02%     -    0s
     0     0 7562778.67    0   41 8132597.35 7562778.67  7.01%     -    0s
     0     0 7611431.41    0   51 8132597.35 7611431.41  6.41%     -    0s
     0     0 7614093.14    0   51 8132597.35 7614093.14  6.38%     -    0s
     0     0 7614290.67    0   49 8132597.35 7614290.67  6.37%     -    0s
     0     0 7641230.14    0   61 8132597.35 7641230.14  6.04%     -    0s
     0     0 7646285.85    0   64 8132597.35 7646285.85  5.98%     -    0s
     0     0 7648697.88    0   65 8132597.35 7648697.88  5.95%     -    0s
     0     0 7660807.86    0   63 8132597.35 7660807.86  5.80%     -    0s
     0     0 7661345.19    0   66 8132597.35 7661345.19  5.79%     -    0s
     0     0 7664343.22    0   63 8132597.35 7664343.22  5.76%     -    0s
     0     0 7664343.22    0   63 8132597.35 7664343.22  5.76%     -    0s
     0     0 7664343.22    0   32 8132597.35 7664343.22  5.76%     -    0s
     0     0 7664343.22    0   48 8132597.35 7664343.22  5.76%     -    0s
     0     0 7664343.22    0   55 8132597.35 7664343.22  5.76%     -    0s
     0     0 7664343.22    0   54 8132597.35 7664343.22  5.76%     -    0s
     0     0 7664343.22    0   54 8132597.35 7664343.22  5.76%     -    0s
     0     0 7664343.22    0   58 8132597.35 7664343.22  5.76%     -    0s
     0     0 7664343.22    0   61 8132597.35 7664343.22  5.76%     -    0s
     0     0 7664393.45    0   63 8132597.35 7664393.45  5.76%     -    0s
     0     0 7667077.61    0   60 8132597.35 7667077.61  5.72%     -    0s
     0     0 7667146.78    0   62 8132597.35 7667146.78  5.72%     -    0s
     0     0 7669202.87    0   66 8132597.35 7669202.87  5.70%     -    0s
     0     0 7669202.87    0   66 8132597.35 7669202.87  5.70%     -    0s
     0     2 7683572.90    0   66 8132597.35 7683572.90  5.52%     -    0s
H  316   224                    8085493.4942 7690498.57  4.89%  30.8    1s
H 1076   587                    8072485.8307 7741666.91  4.10%  31.4    2s
  2104   787 7845727.19   29   41 8072485.83 7782489.96  3.59%  38.9    5s
H 6677  2479                    8072485.8017 7889811.56  2.26%  39.0    9s
  6679  2586 7924370.94   31   47 8072485.80 7889964.96  2.26%  39.0   10s
 13493  3935 8000902.67   35   52 8072485.80 7938656.63  1.66%  40.1   15s
*18722  3690              51    8054844.8978 7968005.03  1.08%  40.3   18s
 20953  2804 8025834.83   39   35 8054844.90 7982690.30  0.90%  40.0   20s

Cutting planes:
  Gomory: 25
  Implied bound: 14
  MIR: 134
  Flow cover: 118
  Network: 1
  RLT: 14
  Relax-and-lift: 16

Explored 25923 nodes (984497 simplex iterations) in 22.10 seconds
Thread count was 8 (of 8 available processors)

Solution count 4: 8.05484e+06 8.07249e+06 8.08549e+06 8.1326e+06 

Optimal solution found (tolerance 1.00e-04)
Best objective 8.054844897835e+06, best bound 8.054844897835e+06, gap 0.0000%

User-callback calls 58405, time in user-callback 0.13 sec

Solução: 8054844.897835414856672
Conexões:
> Subestação = 30
> Valores: origem destino cabo
0 6 0
1 0 0
2 1 0
3 2 0
4 11 0
5 4 0
6 30 0
7 5 0
8 30 1
9 8 1
10 9 1
11 10 1
12 11 0
13 12 0
14 13 0
15 30 1
16 15 1
17 16 0
18 17 0
19 18 0
20 19 0
21 20 0
22 30 1
23 22 1
24 23 1
25 24 0
26 25 0
27 26 0
28 27 0
29 28 0
